# Initialization 
#=======================
units 		real
dimension	3
atom_style 	full
bond_style 	harmonic
angle_style 	harmonic
pair_style 	lj/cut/tip4p/long 1 2 1 1 0.1546 12.0 10.0
kspace_style 	pppm/tip4p 1.0e-5
boundary 	p p p

#Add first Set of water and expand it
read_data water_block_equi.lammps
change_box all x delta -5 5 set remap

#Necessary parameters
pair_coeff 1 1 0.1852	 3.1589
pair_coeff 2 2 0.0	 0.0
pair_coeff 1 2 0.0	 0.0

#Bond Coefficient
bond_coeff 1 0.0 0.9572

#Angle Coefficient
angle_coeff 1 0.0 104.52

#Neighbor Handling
neighbor 2.0 bin
neigh_modify delay 1

#Shake Algorithm
fix SHAKE all shake 0.0001 200 0 b 1 a 1

#Equilibration at T = 250 Kelvin
fix NVT all nvt temp 250 250 100
compute Tpar all temp/partial 1 1 1
fix_modify NVT temp Tpar

#Thermodynamic Data Output
thermo_style custom step temp etotal press
thermo 500

#Dump output
dump all all custom 50 visualize_4.lammpstrj id type x y z

#Timestep = 0.1 fs
timestep 0.1

#Runtime = 10000 timesteps
run 10000

#Data Output
write_data water_block_equi_4.lammps


